p edge 100 0
n 1 106
n 2 102
n 3 109
n 4 109
n 5 100
n 6 104
n 7 106
n 8 104
n 9 110
n 10 103
n 11 106
n 12 102
n 13 101
n 14 106
n 15 104
n 16 101
n 17 101
n 18 102
n 19 102
n 20 100
n 21 100
n 22 108
n 23 109
n 24 108
n 25 102
n 26 105
n 27 105
n 28 105
n 29 105
n 30 106
n 31 109
n 32 106
n 33 103
n 34 102
n 35 109
n 36 109
n 37 101
n 38 109
n 39 104
n 40 105
n 41 103
n 42 104
n 43 103
n 44 101
n 45 101
n 46 100
n 47 110
n 48 105
n 49 103
n 50 101
n 51 103
n 52 107
n 53 105
n 54 100
n 55 108
n 56 109
n 57 104
n 58 108
n 59 100
n 60 100
n 61 110
n 62 107
n 63 107
n 64 102
n 65 105
n 66 108
n 67 103
n 68 103
n 69 105
n 70 104
n 71 103
n 72 108
n 73 109
n 74 101
n 75 107
n 76 104
n 77 104
n 78 108
n 79 106
n 80 108
n 81 107
n 82 104
n 83 103
n 84 110
n 85 106
n 86 108
n 87 100
n 88 110
n 89 107
n 90 107
n 91 108
n 92 104
n 93 108
n 94 110
n 95 106
n 96 109
n 97 101
n 98 101
n 99 106
n 100 108
e 1 2
e 1 3
e 1 4
e 1 6
e 1 7
e 1 8
e 1 10
e 1 13
e 1 17
e 1 21
e 1 22
e 1 26
e 1 29
e 1 32
e 1 35
e 1 36
e 1 38
e 1 40
e 1 41
e 1 44
e 1 45
e 1 47
e 1 49
e 1 52
e 1 53
e 1 55
e 1 56
e 1 58
e 1 61
e 1 65
e 1 66
e 1 70
e 1 71
e 1 72
e 1 74
e 1 76
e 1 78
e 1 81
e 1 82
e 1 83
e 1 84
e 1 86
e 1 87
e 1 89
e 1 90
e 1 93
e 1 95
e 1 98
e 1 100
e 2 4
e 2 7
e 2 12
e 2 13
e 2 19
e 2 20
e 2 21
e 2 25
e 2 29
e 2 31
e 2 32
e 2 37
e 2 42
e 2 43
e 2 50
e 2 52
e 2 55
e 2 56
e 2 57
e 2 58
e 2 59
e 2 61
e 2 69
e 2 70
e 2 71
e 2 72
e 2 75
e 2 81
e 2 82
e 2 83
e 2 85
e 2 86
e 2 87
e 2 88
e 2 89
e 2 90
e 2 93
e 2 94
e 2 95
e 2 96
e 2 97
e 2 98
e 3 8
e 3 10
e 3 12
e 3 14
e 3 15
e 3 18
e 3 22
e 3 23
e 3 24
e 3 25
e 3 26
e 3 27
e 3 28
e 3 29
e 3 30
e 3 35
e 3 38
e 3 39
e 3 40
e 3 41
e 3 42
e 3 43
e 3 45
e 3 46
e 3 47
e 3 48
e 3 51
e 3 53
e 3 55
e 3 57
e 3 58
e 3 60
e 3 62
e 3 63
e 3 64
e 3 67
e 3 69
e 3 70
e 3 72
e 3 76
e 3 78
e 3 79
e 3 81
e 3 82
e 3 83
e 3 84
e 3 86
e 3 88
e 3 90
e 3 94
e 3 96
e 3 97
e 3 98
e 3 99
e 3 100
e 4 7
e 4 8
e 4 10
e 4 11
e 4 14
e 4 15
e 4 17
e 4 20
e 4 23
e 4 26
e 4 28
e 4 30
e 4 31
e 4 36
e 4 38
e 4 43
e 4 48
e 4 49
e 4 54
e 4 55
e 4 58
e 4 59
e 4 60
e 4 61
e 4 65
e 4 67
e 4 68
e 4 72
e 4 73
e 4 75
e 4 84
e 4 85
e 4 86
e 4 87
e 4 92
e 4 93
e 4 94
e 4 95
e 4 100
e 5 6
e 5 7
e 5 9
e 5 10
e 5 11
e 5 12
e 5 13
e 5 14
e 5 16
e 5 18
e 5 21
e 5 25
e 5 28
e 5 30
e 5 31
e 5 32
e 5 35
e 5 36
e 5 37
e 5 38
e 5 39
e 5 42
e 5 45
e 5 48
e 5 52
e 5 54
e 5 58
e 5 60
e 5 61
e 5 64
e 5 66
e 5 69
e 5 71
e 5 72
e 5 77
e 5 78
e 5 79
e 5 80
e 5 84
e 5 85
e 5 87
e 5 88
e 5 89
e 5 91
e 5 93
e 5 94
e 5 95
e 5 97
e 5 99
e 5 100
e 6 8
e 6 9
e 6 10
e 6 11
e 6 12
e 6 14
e 6 17
e 6 19
e 6 22
e 6 24
e 6 29
e 6 31
e 6 44
e 6 49
e 6 53
e 6 57
e 6 60
e 6 62
e 6 63
e 6 65
e 6 71
e 6 72
e 6 75
e 6 78
e 6 80
e 6 81
e 6 82
e 6 83
e 6 84
e 6 85
e 6 90
e 6 91
e 6 92
e 6 96
e 7 8
e 7 10
e 7 12
e 7 14
e 7 16
e 7 19
e 7 20
e 7 21
e 7 22
e 7 23
e 7 24
e 7 25
e 7 26
e 7 29
e 7 30
e 7 32
e 7 35
e 7 36
e 7 39
e 7 40
e 7 41
e 7 44
e 7 47
e 7 49
e 7 51
e 7 52
e 7 59
e 7 62
e 7 63
e 7 66
e 7 67
e 7 68
e 7 72
e 7 73
e 7 75
e 7 76
e 7 78
e 7 79
e 7 80
e 7 83
e 7 85
e 7 87
e 7 88
e 7 91
e 7 92
e 7 93
e 7 94
e 7 95
e 7 96
e 7 98
e 8 9
e 8 10
e 8 11
e 8 18
e 8 21
e 8 23
e 8 25
e 8 26
e 8 27
e 8 31
e 8 33
e 8 34
e 8 39
e 8 43
e 8 51
e 8 52
e 8 54
e 8 57
e 8 59
e 8 60
e 8 61
e 8 62
e 8 63
e 8 64
e 8 65
e 8 67
e 8 69
e 8 76
e 8 77
e 8 78
e 8 79
e 8 81
e 8 85
e 8 86
e 8 88
e 8 89
e 8 90
e 8 91
e 8 93
e 8 95
e 8 96
e 8 100
e 9 10
e 9 11
e 9 15
e 9 16
e 9 17
e 9 18
e 9 19
e 9 23
e 9 24
e 9 26
e 9 28
e 9 30
e 9 31
e 9 32
e 9 33
e 9 36
e 9 38
e 9 40
e 9 41
e 9 44
e 9 48
e 9 49
e 9 50
e 9 53
e 9 54
e 9 55
e 9 56
e 9 57
e 9 61
e 9 63
e 9 65
e 9 66
e 9 68
e 9 72
e 9 73
e 9 74
e 9 75
e 9 77
e 9 78
e 9 81
e 9 82
e 9 84
e 9 90
e 9 91
e 9 92
e 9 93
e 9 96
e 9 97
e 9 98
e 9 99
e 9 100
e 10 11
e 10 12
e 10 14
e 10 19
e 10 21
e 10 22
e 10 23
e 10 24
e 10 25
e 10 27
e 10 28
e 10 29
e 10 35
e 10 36
e 10 41
e 10 42
e 10 44
e 10 45
e 10 46
e 10 47
e 10 49
e 10 51
e 10 53
e 10 54
e 10 55
e 10 56
e 10 57
e 10 58
e 10 59
e 10 60
e 10 61
e 10 65
e 10 67
e 10 68
e 10 69
e 10 70
e 10 71
e 10 72
e 10 77
e 10 79
e 10 80
e 10 81
e 10 86
e 10 90
e 10 94
e 11 12
e 11 13
e 11 17
e 11 19
e 11 23
e 11 24
e 11 26
e 11 27
e 11 31
e 11 32
e 11 33
e 11 36
e 11 39
e 11 41
e 11 43
e 11 44
e 11 47
e 11 50
e 11 54
e 11 56
e 11 59
e 11 62
e 11 63
e 11 67
e 11 71
e 11 77
e 11 79
e 11 82
e 11 83
e 11 84
e 11 85
e 11 86
e 11 90
e 11 91
e 11 92
e 11 93
e 11 94
e 11 97
e 11 98
e 11 99
e 11 100
e 12 13
e 12 14
e 12 15
e 12 16
e 12 18
e 12 19
e 12 20
e 12 25
e 12 27
e 12 30
e 12 32
e 12 38
e 12 40
e 12 42
e 12 45
e 12 46
e 12 48
e 12 49
e 12 50
e 12 51
e 12 52
e 12 53
e 12 55
e 12 56
e 12 57
e 12 62
e 12 63
e 12 64
e 12 67
e 12 70
e 12 73
e 12 74
e 12 75
e 12 76
e 12 77
e 12 78
e 12 80
e 12 81
e 12 84
e 12 86
e 12 87
e 12 90
e 12 91
e 12 94
e 12 96
e 12 97
e 12 98
e 12 99
e 13 14
e 13 19
e 13 21
e 13 22
e 13 24
e 13 26
e 13 27
e 13 29
e 13 32
e 13 33
e 13 34
e 13 38
e 13 40
e 13 41
e 13 42
e 13 45
e 13 47
e 13 48
e 13 50
e 13 53
e 13 56
e 13 58
e 13 59
e 13 60
e 13 62
e 13 63
e 13 67
e 13 69
e 13 70
e 13 73
e 13 75
e 13 79
e 13 81
e 13 87
e 13 88
e 13 89
e 13 90
e 13 93
e 13 94
e 13 95
e 13 97
e 13 100
e 14 17
e 14 20
e 14 21
e 14 22
e 14 24
e 14 26
e 14 29
e 14 31
e 14 32
e 14 34
e 14 38
e 14 41
e 14 42
e 14 43
e 14 45
e 14 48
e 14 49
e 14 52
e 14 53
e 14 55
e 14 56
e 14 57
e 14 61
e 14 62
e 14 67
e 14 69
e 14 73
e 14 74
e 14 78
e 14 79
e 14 80
e 14 81
e 14 83
e 14 84
e 14 85
e 14 87
e 14 89
e 14 91
e 14 97
e 14 99
e 15 16
e 15 18
e 15 19
e 15 20
e 15 23
e 15 25
e 15 26
e 15 32
e 15 33
e 15 37
e 15 38
e 15 39
e 15 42
e 15 45
e 15 46
e 15 47
e 15 50
e 15 53
e 15 54
e 15 56
e 15 58
e 15 59
e 15 60
e 15 61
e 15 62
e 15 63
e 15 66
e 15 68
e 15 69
e 15 73
e 15 74
e 15 78
e 15 81
e 15 83
e 15 86
e 15 87
e 15 89
e 15 91
e 15 92
e 15 95
e 15 96
e 15 100
e 16 17
e 16 18
e 16 22
e 16 23
e 16 24
e 16 26
e 16 28
e 16 29
e 16 30
e 16 31
e 16 34
e 16 35
e 16 36
e 16 37
e 16 42
e 16 43
e 16 44
e 16 46
e 16 48
e 16 49
e 16 51
e 16 52
e 16 53
e 16 58
e 16 61
e 16 62
e 16 63
e 16 65
e 16 66
e 16 67
e 16 70
e 16 74
e 16 75
e 16 76
e 16 77
e 16 79
e 16 80
e 16 82
e 16 84
e 16 86
e 16 87
e 16 89
e 16 91
e 16 93
e 16 94
e 16 99
e 16 100
e 17 20
e 17 22
e 17 28
e 17 29
e 17 35
e 17 36
e 17 37
e 17 39
e 17 41
e 17 42
e 17 44
e 17 46
e 17 47
e 17 48
e 17 51
e 17 52
e 17 54
e 17 55
e 17 58
e 17 60
e 17 62
e 17 63
e 17 68
e 17 69
e 17 70
e 17 71
e 17 74
e 17 75
e 17 76
e 17 77
e 17 78
e 17 80
e 17 81
e 17 90
e 17 93
e 17 94
e 17 95
e 17 96
e 17 97
e 18 19
e 18 20
e 18 22
e 18 23
e 18 28
e 18 29
e 18 30
e 18 31
e 18 32
e 18 33
e 18 35
e 18 36
e 18 37
e 18 38
e 18 40
e 18 41
e 18 46
e 18 48
e 18 52
e 18 53
e 18 54
e 18 59
e 18 62
e 18 63
e 18 64
e 18 65
e 18 67
e 18 68
e 18 69
e 18 70
e 18 73
e 18 74
e 18 76
e 18 77
e 18 79
e 18 81
e 18 82
e 18 87
e 18 89
e 18 92
e 18 94
e 18 95
e 18 96
e 18 97
e 18 98
e 19 20
e 19 22
e 19 24
e 19 26
e 19 30
e 19 33
e 19 34
e 19 35
e 19 36
e 19 38
e 19 40
e 19 41
e 19 42
e 19 44
e 19 46
e 19 49
e 19 51
e 19 52
e 19 57
e 19 59
e 19 61
e 19 69
e 19 70
e 19 81
e 19 82
e 19 86
e 19 88
e 19 90
e 19 92
e 19 96
e 19 98
e 20 22
e 20 23
e 20 26
e 20 35
e 20 36
e 20 38
e 20 39
e 20 41
e 20 47
e 20 48
e 20 49
e 20 53
e 20 55
e 20 57
e 20 58
e 20 60
e 20 62
e 20 64
e 20 66
e 20 71
e 20 73
e 20 74
e 20 75
e 20 77
e 20 78
e 20 80
e 20 83
e 20 84
e 20 85
e 20 87
e 20 91
e 20 92
e 20 95
e 21 23
e 21 24
e 21 26
e 21 27
e 21 29
e 21 32
e 21 36
e 21 37
e 21 38
e 21 40
e 21 41
e 21 42
e 21 43
e 21 47
e 21 50
e 21 52
e 21 54
e 21 56
e 21 66
e 21 71
e 21 72
e 21 73
e 21 75
e 21 79
e 21 83
e 21 84
e 21 85
e 21 89
e 21 91
e 21 92
e 21 94
e 21 95
e 21 97
e 21 100
e 22 23
e 22 24
e 22 26
e 22 27
e 22 32
e 22 33
e 22 34
e 22 35
e 22 36
e 22 37
e 22 38
e 22 39
e 22 40
e 22 41
e 22 42
e 22 43
e 22 45
e 22 46
e 22 47
e 22 48
e 22 50
e 22 51
e 22 52
e 22 53
e 22 55
e 22 56
e 22 57
e 22 58
e 22 59
e 22 63
e 22 64
e 22 66
e 22 72
e 22 74
e 22 75
e 22 77
e 22 78
e 22 79
e 22 82
e 22 83
e 22 86
e 22 87
e 22 89
e 22 92
e 22 93
e 22 94
e 22 95
e 22 96
e 22 100
e 23 26
e 23 28
e 23 31
e 23 32
e 23 38
e 23 41
e 23 42
e 23 43
e 23 45
e 23 46
e 23 49
e 23 50
e 23 53
e 23 54
e 23 55
e 23 57
e 23 58
e 23 59
e 23 61
e 23 65
e 23 70
e 23 73
e 23 76
e 23 82
e 23 83
e 23 84
e 23 88
e 23 90
e 23 91
e 23 93
e 23 95
e 23 96
e 23 97
e 23 99
e 23 100
e 24 25
e 24 26
e 24 31
e 24 33
e 24 34
e 24 36
e 24 37
e 24 41
e 24 43
e 24 44
e 24 48
e 24 49
e 24 50
e 24 51
e 24 55
e 24 56
e 24 57
e 24 58
e 24 61
e 24 62
e 24 66
e 24 67
e 24 68
e 24 69
e 24 72
e 24 73
e 24 75
e 24 78
e 24 79
e 24 80
e 24 81
e 24 82
e 24 83
e 24 84
e 24 85
e 24 89
e 24 90
e 24 92
e 24 94
e 24 95
e 24 96
e 24 97
e 24 99
e 24 100
e 25 26
e 25 33
e 25 36
e 25 37
e 25 38
e 25 41
e 25 44
e 25 45
e 25 46
e 25 51
e 25 52
e 25 53
e 25 55
e 25 57
e 25 59
e 25 60
e 25 61
e 25 62
e 25 64
e 25 65
e 25 70
e 25 71
e 25 72
e 25 74
e 25 76
e 25 77
e 25 78
e 25 81
e 25 82
e 25 84
e 25 85
e 25 88
e 25 89
e 25 90
e 25 92
e 25 94
e 25 95
e 25 99
e 25 100
e 26 29
e 26 30
e 26 32
e 26 36
e 26 37
e 26 38
e 26 39
e 26 41
e 26 43
e 26 44
e 26 46
e 26 47
e 26 48
e 26 49
e 26 51
e 26 53
e 26 55
e 26 60
e 26 64
e 26 65
e 26 66
e 26 67
e 26 68
e 26 70
e 26 71
e 26 74
e 26 75
e 26 76
e 26 77
e 26 78
e 26 79
e 26 81
e 26 82
e 26 83
e 26 86
e 26 88
e 26 95
e 26 96
e 27 28
e 27 29
e 27 32
e 27 33
e 27 36
e 27 37
e 27 39
e 27 42
e 27 43
e 27 44
e 27 46
e 27 48
e 27 54
e 27 57
e 27 60
e 27 61
e 27 62
e 27 64
e 27 67
e 27 68
e 27 69
e 27 72
e 27 73
e 27 74
e 27 77
e 27 79
e 27 80
e 27 81
e 27 82
e 27 83
e 27 85
e 27 88
e 27 89
e 27 90
e 27 91
e 27 95
e 27 98
e 27 99
e 28 31
e 28 33
e 28 39
e 28 42
e 28 45
e 28 46
e 28 48
e 28 49
e 28 50
e 28 55
e 28 56
e 28 57
e 28 59
e 28 61
e 28 62
e 28 65
e 28 66
e 28 68
e 28 69
e 28 70
e 28 71
e 28 73
e 28 74
e 28 77
e 28 78
e 28 81
e 28 83
e 28 85
e 28 91
e 28 92
e 28 95
e 28 99
e 28 100
e 29 30
e 29 34
e 29 35
e 29 38
e 29 39
e 29 40
e 29 41
e 29 42
e 29 43
e 29 44
e 29 45
e 29 47
e 29 48
e 29 54
e 29 55
e 29 56
e 29 57
e 29 59
e 29 64
e 29 65
e 29 67
e 29 68
e 29 71
e 29 72
e 29 73
e 29 74
e 29 76
e 29 78
e 29 79
e 29 80
e 29 81
e 29 82
e 29 83
e 29 84
e 29 87
e 29 89
e 29 90
e 29 91
e 29 93
e 29 94
e 30 31
e 30 35
e 30 36
e 30 39
e 30 40
e 30 41
e 30 43
e 30 44
e 30 47
e 30 49
e 30 50
e 30 52
e 30 55
e 30 56
e 30 59
e 30 60
e 30 63
e 30 64
e 30 65
e 30 66
e 30 69
e 30 70
e 30 71
e 30 72
e 30 74
e 30 75
e 30 78
e 30 79
e 30 83
e 30 84
e 30 85
e 30 87
e 30 88
e 30 90
e 30 93
e 30 95
e 30 98
e 31 34
e 31 37
e 31 40
e 31 42
e 31 43
e 31 45
e 31 48
e 31 49
e 31 50
e 31 53
e 31 54
e 31 55
e 31 56
e 31 57
e 31 60
e 31 68
e 31 70
e 31 72
e 31 73
e 31 74
e 31 78
e 31 80
e 31 85
e 31 88
e 31 90
e 31 93
e 31 96
e 31 99
e 31 100
e 32 33
e 32 34
e 32 37
e 32 39
e 32 41
e 32 43
e 32 44
e 32 46
e 32 49
e 32 50
e 32 54
e 32 55
e 32 57
e 32 59
e 32 60
e 32 61
e 32 62
e 32 63
e 32 67
e 32 68
e 32 69
e 32 71
e 32 72
e 32 74
e 32 75
e 32 78
e 32 79
e 32 80
e 32 81
e 32 82
e 32 84
e 32 86
e 32 90
e 32 91
e 32 93
e 32 94
e 32 95
e 32 96
e 32 98
e 32 99
e 32 100
e 33 34
e 33 36
e 33 37
e 33 40
e 33 41
e 33 42
e 33 43
e 33 45
e 33 47
e 33 49
e 33 50
e 33 54
e 33 55
e 33 57
e 33 60
e 33 61
e 33 64
e 33 65
e 33 66
e 33 67
e 33 69
e 33 72
e 33 73
e 33 75
e 33 76
e 33 77
e 33 80
e 33 81
e 33 82
e 33 83
e 33 85
e 33 89
e 33 91
e 33 93
e 33 94
e 33 96
e 33 97
e 33 99
e 34 35
e 34 37
e 34 38
e 34 40
e 34 43
e 34 46
e 34 47
e 34 48
e 34 49
e 34 52
e 34 56
e 34 57
e 34 59
e 34 61
e 34 62
e 34 63
e 34 68
e 34 69
e 34 70
e 34 73
e 34 74
e 34 76
e 34 80
e 34 81
e 34 83
e 34 85
e 34 86
e 34 87
e 34 89
e 34 90
e 34 92
e 34 93
e 34 94
e 34 95
e 34 96
e 34 97
e 34 98
e 34 99
e 34 100
e 35 36
e 35 37
e 35 38
e 35 39
e 35 46
e 35 51
e 35 54
e 35 55
e 35 57
e 35 58
e 35 59
e 35 60
e 35 64
e 35 67
e 35 69
e 35 70
e 35 72
e 35 73
e 35 75
e 35 76
e 35 79
e 35 81
e 35 82
e 35 84
e 35 88
e 35 92
e 35 94
e 35 97
e 35 99
e 36 38
e 36 39
e 36 40
e 36 41
e 36 43
e 36 44
e 36 47
e 36 49
e 36 50
e 36 52
e 36 53
e 36 57
e 36 58
e 36 60
e 36 62
e 36 63
e 36 65
e 36 67
e 36 68
e 36 69
e 36 73
e 36 74
e 36 75
e 36 76
e 36 79
e 36 84
e 36 85
e 36 86
e 36 88
e 36 90
e 36 91
e 36 93
e 36 94
e 36 95
e 36 96
e 36 97
e 36 98
e 36 100
e 37 38
e 37 39
e 37 43
e 37 44
e 37 45
e 37 46
e 37 48
e 37 56
e 37 57
e 37 58
e 37 59
e 37 60
e 37 61
e 37 62
e 37 65
e 37 68
e 37 69
e 37 71
e 37 72
e 37 73
e 37 74
e 37 77
e 37 78
e 37 84
e 37 85
e 37 86
e 37 88
e 37 89
e 37 92
e 37 93
e 37 94
e 37 95
e 37 96
e 37 97
e 37 99
e 37 100
e 38 39
e 38 40
e 38 42
e 38 47
e 38 48
e 38 49
e 38 51
e 38 52
e 38 53
e 38 54
e 38 56
e 38 59
e 38 61
e 38 64
e 38 73
e 38 75
e 38 76
e 38 80
e 38 82
e 38 84
e 38 85
e 38 86
e 38 92
e 38 93
e 38 97
e 38 98
e 39 43
e 39 44
e 39 48
e 39 49
e 39 50
e 39 51
e 39 52
e 39 58
e 39 59
e 39 60
e 39 62
e 39 66
e 39 67
e 39 69
e 39 72
e 39 73
e 39 76
e 39 78
e 39 86
e 39 87
e 39 91
e 39 93
e 39 94
e 39 95
e 39 98
e 39 100
e 40 41
e 40 42
e 40 43
e 40 44
e 40 46
e 40 49
e 40 51
e 40 52
e 40 53
e 40 54
e 40 55
e 40 56
e 40 58
e 40 59
e 40 63
e 40 69
e 40 70
e 40 74
e 40 79
e 40 81
e 40 82
e 40 83
e 40 84
e 40 88
e 40 89
e 40 90
e 40 92
e 40 93
e 40 94
e 40 97
e 40 98
e 40 100
e 41 42
e 41 43
e 41 47
e 41 51
e 41 52
e 41 53
e 41 54
e 41 57
e 41 60
e 41 62
e 41 67
e 41 69
e 41 73
e 41 78
e 41 80
e 41 81
e 41 82
e 41 83
e 41 84
e 41 85
e 41 86
e 41 87
e 41 89
e 41 92
e 41 95
e 41 97
e 41 98
e 41 99
e 42 43
e 42 44
e 42 46
e 42 47
e 42 48
e 42 49
e 42 50
e 42 51
e 42 52
e 42 53
e 42 54
e 42 58
e 42 59
e 42 61
e 42 64
e 42 65
e 42 69
e 42 70
e 42 71
e 42 73
e 42 74
e 42 77
e 42 80
e 42 82
e 42 83
e 42 85
e 42 88
e 42 90
e 42 91
e 42 92
e 42 94
e 42 95
e 42 96
e 42 98
e 42 99
e 43 45
e 43 49
e 43 52
e 43 57
e 43 61
e 43 62
e 43 63
e 43 64
e 43 67
e 43 72
e 43 73
e 43 77
e 43 81
e 43 83
e 43 84
e 43 85
e 43 86
e 43 95
e 43 96
e 43 97
e 43 98
e 43 99
e 44 45
e 44 47
e 44 49
e 44 50
e 44 53
e 44 55
e 44 56
e 44 58
e 44 61
e 44 65
e 44 67
e 44 69
e 44 70
e 44 71
e 44 72
e 44 73
e 44 74
e 44 75
e 44 77
e 44 78
e 44 79
e 44 80
e 44 82
e 44 87
e 44 93
e 44 94
e 44 95
e 44 96
e 44 100
e 45 46
e 45 47
e 45 48
e 45 49
e 45 51
e 45 52
e 45 55
e 45 56
e 45 59
e 45 63
e 45 64
e 45 65
e 45 66
e 45 68
e 45 72
e 45 74
e 45 76
e 45 78
e 45 80
e 45 87
e 45 90
e 45 95
e 45 96
e 45 99
e 45 100
e 46 49
e 46 50
e 46 52
e 46 53
e 46 59
e 46 61
e 46 62
e 46 63
e 46 66
e 46 67
e 46 72
e 46 74
e 46 75
e 46 76
e 46 77
e 46 78
e 46 80
e 46 81
e 46 82
e 46 83
e 46 85
e 46 86
e 46 87
e 46 90
e 46 91
e 46 96
e 46 97
e 46 98
e 46 99
e 47 48
e 47 49
e 47 52
e 47 58
e 47 60
e 47 62
e 47 63
e 47 65
e 47 68
e 47 69
e 47 71
e 47 73
e 47 75
e 47 76
e 47 77
e 47 78
e 47 79
e 47 84
e 47 85
e 47 87
e 47 91
e 47 93
e 47 94
e 47 95
e 47 96
e 47 97
e 47 98
e 48 50
e 48 52
e 48 53
e 48 55
e 48 59
e 48 60
e 48 61
e 48 62
e 48 63
e 48 64
e 48 66
e 48 67
e 48 68
e 48 69
e 48 72
e 48 75
e 48 77
e 48 78
e 48 80
e 48 84
e 48 85
e 48 86
e 48 87
e 48 88
e 48 89
e 48 91
e 48 94
e 48 98
e 49 50
e 49 51
e 49 52
e 49 56
e 49 61
e 49 62
e 49 63
e 49 64
e 49 68
e 49 69
e 49 70
e 49 71
e 49 72
e 49 76
e 49 78
e 49 79
e 49 80
e 49 83
e 49 84
e 49 85
e 49 86
e 49 89
e 49 92
e 49 93
e 49 96
e 49 100
e 50 51
e 50 52
e 50 54
e 50 56
e 50 57
e 50 61
e 50 62
e 50 64
e 50 67
e 50 69
e 50 70
e 50 71
e 50 75
e 50 77
e 50 78
e 50 79
e 50 80
e 50 82
e 50 83
e 50 84
e 50 86
e 50 88
e 50 90
e 50 91
e 50 92
e 50 98
e 51 53
e 51 55
e 51 58
e 51 59
e 51 61
e 51 62
e 51 64
e 51 65
e 51 66
e 51 67
e 51 68
e 51 76
e 51 78
e 51 84
e 51 85
e 51 93
e 51 96
e 51 99
e 52 53
e 52 55
e 52 56
e 52 57
e 52 58
e 52 63
e 52 64
e 52 66
e 52 67
e 52 68
e 52 69
e 52 70
e 52 71
e 52 73
e 52 74
e 52 75
e 52 76
e 52 77
e 52 78
e 52 79
e 52 80
e 52 81
e 52 83
e 52 84
e 52 85
e 52 88
e 52 89
e 52 90
e 52 95
e 52 97
e 52 98
e 52 99
e 52 100
e 53 54
e 53 55
e 53 57
e 53 59
e 53 60
e 53 62
e 53 64
e 53 67
e 53 70
e 53 71
e 53 75
e 53 76
e 53 77
e 53 79
e 53 80
e 53 82
e 53 83
e 53 84
e 53 85
e 53 88
e 53 90
e 53 91
e 53 93
e 53 96
e 53 98
e 53 99
e 53 100
e 54 55
e 54 56
e 54 62
e 54 63
e 54 64
e 54 65
e 54 67
e 54 68
e 54 69
e 54 71
e 54 72
e 54 73
e 54 74
e 54 76
e 54 77
e 54 81
e 54 84
e 54 87
e 54 88
e 54 89
e 54 90
e 54 93
e 54 94
e 54 96
e 54 98
e 54 99
e 54 100
e 55 57
e 55 58
e 55 59
e 55 61
e 55 63
e 55 64
e 55 65
e 55 67
e 55 69
e 55 71
e 55 72
e 55 73
e 55 74
e 55 76
e 55 77
e 55 78
e 55 79
e 55 80
e 55 83
e 55 84
e 55 87
e 55 91
e 55 93
e 55 95
e 55 96
e 55 98
e 55 100
e 56 60
e 56 63
e 56 64
e 56 67
e 56 68
e 56 69
e 56 72
e 56 74
e 56 76
e 56 79
e 56 80
e 56 81
e 56 83
e 56 84
e 56 85
e 56 87
e 56 89
e 56 90
e 56 91
e 56 94
e 56 100
e 57 60
e 57 61
e 57 62
e 57 63
e 57 64
e 57 67
e 57 71
e 57 73
e 57 74
e 57 77
e 57 78
e 57 79
e 57 80
e 57 84
e 57 85
e 57 86
e 57 87
e 57 88
e 57 89
e 57 90
e 57 91
e 57 93
e 57 98
e 57 100
e 58 59
e 58 63
e 58 65
e 58 66
e 58 69
e 58 70
e 58 72
e 58 75
e 58 76
e 58 78
e 58 81
e 58 85
e 58 86
e 58 87
e 58 89
e 58 92
e 58 93
e 58 94
e 58 97
e 58 100
e 59 60
e 59 61
e 59 68
e 59 71
e 59 72
e 59 73
e 59 78
e 59 79
e 59 80
e 59 82
e 59 84
e 59 85
e 59 86
e 59 88
e 59 89
e 59 95
e 59 96
e 59 97
e 59 98
e 60 61
e 60 63
e 60 64
e 60 66
e 60 67
e 60 68
e 60 73
e 60 75
e 60 79
e 60 80
e 60 83
e 60 85
e 60 87
e 60 88
e 60 90
e 60 92
e 60 93
e 60 95
e 60 99
e 61 62
e 61 63
e 61 69
e 61 70
e 61 72
e 61 74
e 61 76
e 61 78
e 61 79
e 61 81
e 61 82
e 61 83
e 61 84
e 61 89
e 61 91
e 61 92
e 61 94
e 61 95
e 61 97
e 61 98
e 61 100
e 62 64
e 62 65
e 62 66
e 62 67
e 62 68
e 62 71
e 62 73
e 62 75
e 62 76
e 62 79
e 62 80
e 62 81
e 62 82
e 62 83
e 62 85
e 62 89
e 62 92
e 62 93
e 62 94
e 62 95
e 62 96
e 62 98
e 62 99
e 63 68
e 63 71
e 63 75
e 63 76
e 63 79
e 63 80
e 63 85
e 63 86
e 63 87
e 63 89
e 63 90
e 63 92
e 63 94
e 63 97
e 63 98
e 63 100
e 64 67
e 64 68
e 64 69
e 64 73
e 64 74
e 64 78
e 64 79
e 64 82
e 64 83
e 64 85
e 64 88
e 64 94
e 64 96
e 64 97
e 64 99
e 65 66
e 65 71
e 65 72
e 65 73
e 65 74
e 65 77
e 65 78
e 65 79
e 65 82
e 65 84
e 65 85
e 65 89
e 65 90
e 65 91
e 65 92
e 65 96
e 65 97
e 65 99
e 65 100
e 66 68
e 66 69
e 66 71
e 66 76
e 66 79
e 66 84
e 66 85
e 66 86
e 66 87
e 66 88
e 66 89
e 66 90
e 66 91
e 66 92
e 66 95
e 67 69
e 67 71
e 67 72
e 67 73
e 67 74
e 67 76
e 67 77
e 67 78
e 67 80
e 67 81
e 67 83
e 67 84
e 67 85
e 67 87
e 67 88
e 67 89
e 67 91
e 67 94
e 67 95
e 67 96
e 67 99
e 67 100
e 68 70
e 68 73
e 68 75
e 68 78
e 68 83
e 68 84
e 68 86
e 68 89
e 68 90
e 68 91
e 68 93
e 68 95
e 68 96
e 68 97
e 69 71
e 69 72
e 69 81
e 69 84
e 69 87
e 69 88
e 69 89
e 69 97
e 69 99
e 70 72
e 70 73
e 70 75
e 70 79
e 70 80
e 70 82
e 70 85
e 70 87
e 70 88
e 70 90
e 70 94
e 70 95
e 70 97
e 70 99
e 71 72
e 71 75
e 71 77
e 71 78
e 71 79
e 71 81
e 71 82
e 71 84
e 71 86
e 71 87
e 71 88
e 71 89
e 71 93
e 71 97
e 71 100
e 72 73
e 72 75
e 72 77
e 72 79
e 72 80
e 72 81
e 72 85
e 72 86
e 72 87
e 72 88
e 72 90
e 72 91
e 72 92
e 72 93
e 72 97
e 72 99
e 72 100
e 73 77
e 73 78
e 73 82
e 73 83
e 73 90
e 73 91
e 73 94
e 73 96
e 73 97
e 73 98
e 73 100
e 74 75
e 74 77
e 74 80
e 74 81
e 74 82
e 74 84
e 74 85
e 74 87
e 74 91
e 74 92
e 74 97
e 74 98
e 75 80
e 75 84
e 75 86
e 75 96
e 75 97
e 75 98
e 75 100
e 76 80
e 76 81
e 76 82
e 76 83
e 76 84
e 76 85
e 76 86
e 76 88
e 76 90
e 76 91
e 76 92
e 76 93
e 76 95
e 76 96
e 76 97
e 76 99
e 77 79
e 77 81
e 77 82
e 77 83
e 77 85
e 77 88
e 77 89
e 77 92
e 77 94
e 77 96
e 77 97
e 77 99
e 77 100
e 78 79
e 78 80
e 78 81
e 78 82
e 78 84
e 78 89
e 78 90
e 78 91
e 78 93
e 78 95
e 78 96
e 78 100
e 79 80
e 79 81
e 79 82
e 79 84
e 79 85
e 79 86
e 79 87
e 79 88
e 79 91
e 79 93
e 79 95
e 79 96
e 79 97
e 80 84
e 80 88
e 80 92
e 80 93
e 80 98
e 81 84
e 81 86
e 81 88
e 81 89
e 81 90
e 81 92
e 81 93
e 81 94
e 81 96
e 81 99
e 81 100
e 82 83
e 82 85
e 82 86
e 82 88
e 82 91
e 82 93
e 82 94
e 82 95
e 82 97
e 82 98
e 82 99
e 83 84
e 83 85
e 83 87
e 83 91
e 83 92
e 83 93
e 83 97
e 83 99
e 84 88
e 84 89
e 84 92
e 84 95
e 84 98
e 85 86
e 85 87
e 85 88
e 85 89
e 85 91
e 85 96
e 85 98
e 85 99
e 85 100
e 86 88
e 86 89
e 86 90
e 86 91
e 86 92
e 86 95
e 86 96
e 86 98
e 87 88
e 87 89
e 87 90
e 87 92
e 87 93
e 87 94
e 87 95
e 87 97
e 88 89
e 88 90
e 88 91
e 88 94
e 88 95
e 88 96
e 88 97
e 88 98
e 88 99
e 88 100
e 89 91
e 89 93
e 89 97
e 89 99
e 90 93
e 90 95
e 90 97
e 90 98
e 90 99
e 91 93
e 91 96
e 91 98
e 92 93
e 92 97
e 92 98
e 93 94
e 93 95
e 93 97
e 94 97
e 94 100
e 95 96
e 95 98
e 95 100
e 96 98
e 96 100
e 97 98
e 97 99
e 97 100
e 98 99
e 98 100
e 99 100
